NAME: PointSet_Angle_15_7
TYPE: TSP
COMMENT: Points chosen discrete uniformly at random out of ${0, \ldots, 500}^2$.
DIMENSION: 15
EDGE_WEIGHT_TYPE: EUC_2D
NODE_COORD_SECTION
1 127 465
2 353 262
3 233 321
4 328 29
5 215 365
6 102 324
7 327 111
8 488 19
9 350 356
10 136 116
11 390 273
12 269 311
13 425 148
14 139 300
15 100 297
EOF
